HUN,8,6,169
2,30,1,7,0,10,3,16,5,29,4,3
1,12,0,20,2,10,3,16,4,23,5,26
1,10,2,11,0,12,3,18,4,21,5,15
0,6,1,26,2,24,5,19,4,1,3,15
1,16,0,28,2,5,4,16,5,5,3,1
1,3,0,22,2,2,5,18,4,17,3,6
0,7,2,3,1,21,4,5,5,28,3,26
1,2,2,9,0,25,4,28,3,28,5,8
